NAME : instances/clustered-mixed-tsp/instance-91.tsp
COMMENT : No Comment
TYPE : TSP
DIMENSION: 48
EDGE_WEIGHT_TYPE : EUC_2D
NODE_COORD_SECTION
1 173 791 
2 215 95 
3 59 1013 
4 395 317 
5 461 635 
6 749 947 
7 323 -67 
8 569 821 
9 305 173 
10 203 467 
11 323 5 
12 857 983 
13 155 239 
14 269 281 
15 731 857 
16 209 737 
17 -43 95 
18 197 -31 
19 269 371 
20 107 149 
21 167 395 
22 641 875 
23 479 671 
24 -109 767 
25 497 677 
26 191 893 
27 323 -103 
28 305 1079 
29 95 521 
30 569 677 
31 677 839 
32 -7 185 
33 29 77 
34 179 173 
35 -115 275 
36 677 731 
37 749 803 
38 335 953 
39 305 -85 
40 11 131 
41 833 881 
42 623 641 
43 89 77 
44 221 887 
45 731 875 
46 -55 767 
47 65 893 
48 -19 767 
EOF
